NAME: tsp_slides
COMMENT: TSP slide example (Dario)
TYPE: TSP
DIMENSION: 10
EDGE_WEIGHT_TYPE: EUC_2D
NODE_COORD_SECTION
1 701 689
2 104 19
3 820 538
4 209 670
5 477 510
6 370 305
7 651 221
8 112 121
9 976 655
10 134 515
